c File: data_files/evolved_graphs/g0474.col
c
c Auto generated graph
c
p edge 100 1688
e 1 3
e 1 4
e 1 5
e 1 10
e 1 19
e 1 28
e 1 29
e 1 30
e 1 31
e 1 32
e 1 33
e 1 34
e 1 35
e 1 36
e 1 37
e 1 38
e 1 39
e 1 40
e 1 41
e 1 42
e 1 43
e 1 44
e 1 45
e 1 46
e 1 47
e 1 48
e 1 49
e 1 50
e 1 51
e 1 52
e 1 53
e 1 54
e 1 55
e 1 56
e 1 57
e 1 58
e 1 59
e 1 60
e 1 61
e 1 62
e 1 63
e 1 64
e 1 65
e 1 66
e 1 67
e 1 68
e 1 69
e 1 70
e 1 96
e 2 5
e 2 10
e 2 14
e 2 16
e 2 17
e 2 19
e 2 23
e 2 27
e 2 28
e 2 29
e 2 30
e 2 31
e 2 32
e 2 33
e 2 34
e 2 35
e 2 36
e 2 37
e 2 38
e 2 39
e 2 40
e 2 41
e 2 42
e 2 43
e 2 44
e 2 45
e 2 46
e 2 47
e 2 48
e 2 49
e 2 50
e 2 51
e 2 52
e 2 53
e 2 54
e 2 55
e 2 56
e 2 57
e 2 58
e 2 59
e 2 60
e 2 61
e 2 62
e 2 63
e 2 64
e 2 65
e 2 66
e 2 67
e 2 68
e 2 69
e 2 70
e 2 73
e 2 84
e 3 7
e 3 8
e 3 11
e 3 12
e 3 16
e 3 17
e 3 19
e 3 24
e 3 26
e 3 28
e 3 29
e 3 30
e 3 31
e 3 32
e 3 33
e 3 34
e 3 35
e 3 36
e 3 37
e 3 38
e 3 39
e 3 40
e 3 41
e 3 42
e 3 43
e 3 44
e 3 45
e 3 46
e 3 47
e 3 48
e 3 49
e 3 50
e 3 51
e 3 52
e 3 53
e 3 54
e 3 55
e 3 56
e 3 57
e 3 58
e 3 59
e 3 60
e 3 61
e 3 62
e 3 63
e 3 64
e 3 65
e 3 66
e 3 67
e 3 68
e 3 69
e 3 70
e 3 86
e 4 13
e 4 17
e 4 18
e 4 20
e 4 23
e 4 25
e 4 27
e 4 28
e 4 30
e 4 31
e 4 32
e 4 33
e 4 34
e 4 35
e 4 36
e 4 37
e 4 38
e 4 39
e 4 40
e 4 41
e 4 42
e 4 43
e 4 44
e 4 45
e 4 46
e 4 47
e 4 48
e 4 49
e 4 50
e 4 51
e 4 52
e 4 53
e 4 54
e 4 55
e 4 56
e 4 57
e 4 58
e 4 59
e 4 60
e 4 61
e 4 62
e 4 63
e 4 64
e 4 65
e 4 67
e 4 68
e 4 69
e 4 70
e 5 10
e 5 12
e 5 13
e 5 21
e 5 23
e 5 28
e 5 29
e 5 30
e 5 31
e 5 32
e 5 33
e 5 34
e 5 35
e 5 36
e 5 37
e 5 38
e 5 39
e 5 40
e 5 41
e 5 42
e 5 43
e 5 44
e 5 45
e 5 46
e 5 47
e 5 48
e 5 49
e 5 50
e 5 51
e 5 52
e 5 53
e 5 54
e 5 55
e 5 56
e 5 57
e 5 58
e 5 59
e 5 60
e 5 61
e 5 62
e 5 63
e 5 64
e 5 65
e 5 66
e 5 67
e 5 68
e 5 69
e 5 70
e 6 13
e 6 14
e 6 16
e 6 19
e 6 21
e 6 26
e 6 27
e 6 28
e 6 29
e 6 30
e 6 31
e 6 32
e 6 33
e 6 34
e 6 35
e 6 36
e 6 37
e 6 38
e 6 39
e 6 40
e 6 41
e 6 42
e 6 43
e 6 44
e 6 45
e 6 46
e 6 47
e 6 48
e 6 49
e 6 50
e 6 51
e 6 52
e 6 53
e 6 54
e 6 55
e 6 56
e 6 57
e 6 58
e 6 59
e 6 60
e 6 61
e 6 62
e 6 63
e 6 64
e 6 65
e 6 66
e 6 67
e 6 68
e 6 69
e 6 70
e 6 74
e 6 77
e 7 10
e 7 11
e 7 13
e 7 17
e 7 24
e 7 28
e 7 29
e 7 30
e 7 31
e 7 32
e 7 33
e 7 34
e 7 35
e 7 36
e 7 37
e 7 38
e 7 39
e 7 40
e 7 41
e 7 42
e 7 43
e 7 44
e 7 45
e 7 46
e 7 47
e 7 48
e 7 49
e 7 50
e 7 51
e 7 52
e 7 53
e 7 54
e 7 55
e 7 56
e 7 57
e 7 58
e 7 59
e 7 60
e 7 61
e 7 62
e 7 63
e 7 64
e 7 65
e 7 66
e 7 67
e 7 68
e 7 69
e 7 70
e 7 96
e 8 9
e 8 10
e 8 19
e 8 20
e 8 28
e 8 29
e 8 30
e 8 31
e 8 32
e 8 33
e 8 34
e 8 35
e 8 36
e 8 37
e 8 38
e 8 39
e 8 40
e 8 41
e 8 42
e 8 43
e 8 44
e 8 45
e 8 46
e 8 47
e 8 48
e 8 49
e 8 50
e 8 51
e 8 52
e 8 53
e 8 54
e 8 55
e 8 56
e 8 57
e 8 58
e 8 59
e 8 60
e 8 61
e 8 62
e 8 63
e 8 64
e 8 65
e 8 66
e 8 67
e 8 68
e 8 69
e 8 70
e 8 90
e 8 96
e 8 100
e 9 19
e 9 25
e 9 32
e 9 34
e 9 35
e 9 42
e 9 43
e 9 44
e 9 45
e 9 46
e 9 47
e 9 48
e 9 49
e 9 50
e 9 51
e 9 52
e 9 53
e 9 54
e 9 55
e 9 56
e 9 57
e 9 58
e 9 59
e 9 60
e 9 61
e 9 62
e 9 63
e 9 64
e 9 65
e 9 66
e 9 67
e 9 68
e 9 69
e 9 70
e 9 71
e 9 72
e 9 73
e 9 74
e 9 75
e 9 76
e 9 77
e 9 78
e 9 79
e 9 80
e 9 81
e 9 82
e 9 83
e 9 84
e 9 85
e 9 86
e 9 87
e 9 88
e 9 89
e 9 90
e 9 91
e 9 92
e 9 93
e 9 94
e 9 95
e 9 96
e 9 97
e 9 98
e 9 99
e 9 100
e 10 15
e 10 22
e 10 27
e 10 35
e 10 38
e 10 42
e 10 43
e 10 44
e 10 45
e 10 46
e 10 47
e 10 48
e 10 49
e 10 50
e 10 51
e 10 52
e 10 53
e 10 54
e 10 55
e 10 56
e 10 57
e 10 58
e 10 59
e 10 60
e 10 61
e 10 62
e 10 63
e 10 64
e 10 65
e 10 66
e 10 67
e 10 68
e 10 69
e 10 70
e 10 71
e 10 72
e 10 73
e 10 74
e 10 75
e 10 76
e 10 77
e 10 78
e 10 79
e 10 80
e 10 81
e 10 82
e 10 83
e 10 84
e 10 85
e 10 86
e 10 87
e 10 88
e 10 89
e 10 90
e 10 91
e 10 92
e 10 93
e 10 94
e 10 95
e 10 96
e 10 97
e 10 98
e 10 99
e 10 100
e 11 13
e 11 14
e 11 17
e 11 22
e 11 27
e 11 30
e 11 42
e 11 43
e 11 44
e 11 45
e 11 46
e 11 47
e 11 48
e 11 49
e 11 50
e 11 51
e 11 52
e 11 53
e 11 54
e 11 55
e 11 56
e 11 57
e 11 58
e 11 59
e 11 60
e 11 61
e 11 62
e 11 63
e 11 64
e 11 65
e 11 66
e 11 67
e 11 68
e 11 69
e 11 70
e 11 71
e 11 72
e 11 73
e 11 74
e 11 75
e 11 76
e 11 77
e 11 78
e 11 79
e 11 80
e 11 81
e 11 82
e 11 83
e 11 84
e 11 85
e 11 86
e 11 87
e 11 88
e 11 89
e 11 90
e 11 91
e 11 92
e 11 93
e 11 94
e 11 95
e 11 97
e 11 98
e 11 99
e 12 13
e 12 17
e 12 18
e 12 21
e 12 23
e 12 35
e 12 39
e 12 42
e 12 43
e 12 44
e 12 45
e 12 46
e 12 47
e 12 48
e 12 49
e 12 50
e 12 51
e 12 52
e 12 53
e 12 54
e 12 55
e 12 56
e 12 57
e 12 58
e 12 59
e 12 60
e 12 61
e 12 62
e 12 63
e 12 64
e 12 65
e 12 66
e 12 67
e 12 68
e 12 69
e 12 70
e 12 71
e 12 72
e 12 73
e 12 74
e 12 75
e 12 76
e 12 77
e 12 96
e 12 97
e 12 98
e 13 14
e 13 15
e 13 19
e 13 22
e 13 23
e 13 26
e 13 27
e 13 41
e 13 42
e 13 43
e 13 44
e 13 45
e 13 46
e 13 47
e 13 48
e 13 49
e 13 50
e 13 51
e 13 52
e 13 53
e 13 54
e 13 55
e 13 56
e 13 57
e 13 58
e 13 59
e 13 60
e 13 61
e 13 62
e 13 63
e 13 64
e 13 65
e 13 66
e 13 67
e 13 68
e 13 69
e 13 70
e 13 71
e 13 72
e 13 73
e 13 74
e 13 75
e 13 76
e 13 77
e 13 96
e 13 97
e 13 98
e 14 15
e 14 18
e 14 19
e 14 23
e 14 24
e 14 27
e 14 34
e 14 36
e 14 42
e 14 43
e 14 44
e 14 45
e 14 46
e 14 47
e 14 48
e 14 49
e 14 50
e 14 51
e 14 52
e 14 53
e 14 54
e 14 55
e 14 56
e 14 57
e 14 58
e 14 59
e 14 60
e 14 61
e 14 62
e 14 63
e 14 64
e 14 65
e 14 66
e 14 67
e 14 68
e 14 69
e 14 70
e 14 71
e 14 72
e 14 73
e 14 74
e 14 75
e 14 76
e 14 77
e 14 96
e 14 97
e 14 98
e 15 17
e 15 23
e 15 29
e 15 30
e 15 31
e 15 40
e 15 42
e 15 43
e 15 44
e 15 45
e 15 46
e 15 47
e 15 48
e 15 49
e 15 50
e 15 51
e 15 52
e 15 53
e 15 54
e 15 55
e 15 56
e 15 57
e 15 58
e 15 59
e 15 60
e 15 61
e 15 62
e 15 63
e 15 64
e 15 65
e 15 66
e 15 67
e 15 68
e 15 69
e 15 70
e 15 71
e 15 72
e 15 73
e 15 74
e 15 75
e 15 76
e 15 77
e 15 96
e 15 97
e 15 98
e 16 18
e 16 20
e 16 31
e 16 33
e 16 34
e 16 39
e 16 41
e 16 42
e 16 43
e 16 44
e 16 45
e 16 46
e 16 47
e 16 48
e 16 49
e 16 50
e 16 51
e 16 52
e 16 53
e 16 54
e 16 55
e 16 56
e 16 57
e 16 58
e 16 59
e 16 60
e 16 61
e 16 62
e 16 63
e 16 64
e 16 65
e 16 66
e 16 67
e 16 68
e 16 69
e 16 70
e 16 71
e 16 72
e 16 73
e 16 74
e 16 75
e 16 76
e 16 77
e 16 86
e 16 96
e 16 97
e 16 98
e 17 21
e 17 26
e 17 29
e 17 31
e 17 35
e 17 37
e 17 38
e 17 42
e 17 43
e 17 44
e 17 45
e 17 46
e 17 47
e 17 48
e 17 49
e 17 50
e 17 51
e 17 52
e 17 53
e 17 54
e 17 55
e 17 56
e 17 57
e 17 58
e 17 59
e 17 60
e 17 61
e 17 62
e 17 63
e 17 64
e 17 65
e 17 66
e 17 96
e 17 97
e 17 98
e 18 19
e 18 24
e 18 28
e 18 31
e 18 32
e 18 33
e 18 34
e 18 36
e 18 38
e 18 42
e 18 43
e 18 44
e 18 45
e 18 46
e 18 47
e 18 48
e 18 49
e 18 50
e 18 51
e 18 52
e 18 53
e 18 54
e 18 55
e 18 56
e 18 57
e 18 58
e 18 59
e 18 60
e 18 61
e 18 62
e 18 63
e 18 64
e 18 65
e 18 66
e 18 96
e 18 97
e 18 98
e 19 26
e 19 27
e 19 31
e 19 39
e 19 40
e 19 42
e 19 43
e 19 44
e 19 45
e 19 46
e 19 47
e 19 48
e 19 49
e 19 50
e 19 51
e 19 52
e 19 53
e 19 54
e 19 55
e 19 56
e 19 57
e 19 58
e 19 59
e 19 60
e 19 61
e 19 62
e 19 63
e 19 64
e 19 65
e 19 66
e 19 96
e 19 97
e 19 98
e 20 24
e 20 27
e 20 31
e 20 32
e 20 35
e 20 42
e 20 43
e 20 44
e 20 45
e 20 46
e 20 47
e 20 48
e 20 49
e 20 50
e 20 51
e 20 52
e 20 53
e 20 54
e 20 55
e 20 56
e 20 57
e 20 58
e 20 59
e 20 60
e 20 61
e 20 62
e 20 63
e 20 64
e 20 65
e 20 66
e 20 96
e 20 97
e 20 98
e 21 22
e 21 23
e 21 24
e 21 25
e 21 29
e 21 30
e 21 41
e 21 42
e 21 43
e 21 44
e 21 45
e 21 46
e 21 47
e 21 48
e 21 49
e 21 50
e 21 51
e 21 52
e 21 53
e 21 54
e 21 55
e 21 56
e 21 57
e 21 58
e 21 59
e 21 60
e 21 61
e 21 62
e 21 63
e 21 64
e 21 65
e 21 66
e 21 96
e 21 97
e 21 98
e 22 25
e 22 26
e 22 32
e 22 35
e 22 40
e 22 42
e 22 43
e 22 44
e 22 45
e 22 46
e 22 47
e 22 48
e 22 49
e 22 50
e 22 51
e 22 52
e 22 53
e 22 54
e 22 55
e 22 56
e 22 57
e 22 58
e 22 59
e 22 60
e 22 61
e 22 62
e 22 63
e 22 64
e 22 65
e 22 66
e 22 89
e 22 96
e 22 97
e 22 98
e 23 25
e 23 26
e 23 30
e 23 37
e 23 39
e 23 42
e 23 43
e 23 44
e 23 45
e 23 47
e 23 48
e 23 49
e 23 50
e 23 51
e 23 52
e 23 53
e 23 54
e 23 55
e 23 56
e 23 57
e 23 58
e 23 59
e 23 60
e 23 61
e 23 62
e 23 63
e 23 64
e 23 65
e 23 66
e 23 96
e 23 97
e 23 98
e 24 31
e 24 42
e 24 43
e 24 44
e 24 45
e 24 46
e 24 47
e 24 48
e 24 49
e 24 50
e 24 51
e 24 52
e 24 53
e 24 54
e 24 55
e 24 56
e 24 57
e 24 58
e 24 59
e 24 60
e 24 61
e 24 62
e 24 63
e 24 64
e 24 65
e 24 66
e 24 67
e 24 69
e 24 100
e 25 37
e 25 39
e 25 41
e 26 27
e 26 32
e 26 34
e 26 38
e 27 29
e 27 30
e 27 33
e 28 29
e 28 30
e 28 31
e 28 32
e 28 33
e 29 30
e 29 31
e 29 34
e 29 36
e 29 38
e 30 37
e 30 39
e 30 53
e 30 63
e 30 66
e 30 71
e 31 34
e 31 36
e 31 37
e 31 38
e 31 47
e 31 51
e 31 63
e 31 71
e 31 75
e 31 79
e 31 89
e 31 90
e 31 94
e 32 34
e 32 39
e 32 41
e 32 56
e 32 59
e 32 75
e 32 76
e 32 83
e 32 90
e 32 95
e 33 36
e 33 37
e 33 38
e 33 43
e 33 46
e 33 67
e 33 69
e 33 81
e 33 88
e 34 36
e 34 39
e 34 48
e 34 49
e 34 54
e 34 63
e 34 78
e 34 87
e 35 37
e 35 41
e 35 43
e 35 50
e 35 58
e 35 66
e 35 85
e 36 38
e 36 44
e 36 48
e 36 51
e 36 57
e 36 88
e 36 92
e 37 39
e 37 40
e 37 41
e 37 50
e 37 61
e 37 62
e 37 64
e 37 72
e 37 80
e 37 83
e 37 93
e 38 41
e 38 52
e 38 59
e 38 69
e 38 75
e 38 86
e 39 68
e 39 70
e 39 72
e 39 94
e 40 41
e 40 54
e 40 66
e 40 80
e 40 100
e 41 58
e 41 60
e 41 84
e 41 89
e 42 44
e 42 45
e 42 47
e 42 48
e 42 50
e 42 51
e 42 55
e 42 59
e 42 64
e 42 66
e 42 69
e 42 77
e 42 78
e 42 83
e 42 86
e 42 87
e 42 92
e 42 93
e 42 96
e 43 45
e 43 47
e 43 51
e 43 52
e 43 53
e 43 65
e 43 72
e 43 84
e 43 85
e 43 86
e 43 90
e 43 99
e 44 45
e 44 46
e 44 47
e 44 50
e 44 53
e 44 60
e 44 62
e 44 72
e 44 73
e 44 76
e 44 78
e 44 79
e 44 83
e 44 92
e 44 93
e 44 99
e 44 100
e 45 54
e 45 58
e 45 59
e 45 64
e 45 67
e 45 68
e 45 71
e 45 74
e 45 80
e 45 82
e 45 83
e 45 84
e 45 85
e 45 89
e 45 91
e 45 98
e 46 50
e 46 52
e 46 55
e 46 68
e 46 73
e 46 74
e 46 76
e 46 77
e 46 79
e 46 80
e 46 81
e 46 85
e 46 87
e 46 92
e 46 98
e 46 100
e 47 51
e 47 52
e 47 57
e 47 58
e 47 59
e 47 60
e 47 61
e 47 64
e 47 65
e 47 66
e 47 73
e 47 74
e 47 78
e 47 79
e 47 82
e 47 87
e 47 100
e 48 50
e 48 52
e 48 54
e 48 57
e 48 59
e 48 63
e 48 69
e 48 72
e 48 75
e 48 76
e 48 77
e 48 84
e 48 88
e 48 89
e 48 91
e 48 94
e 48 95
e 48 97
e 49 50
e 49 51
e 49 56
e 49 60
e 49 62
e 49 63
e 49 67
e 49 70
e 49 75
e 49 77
e 49 80
e 49 84
e 49 86
e 49 90
e 49 91
e 49 94
e 49 96
e 49 97
e 50 53
e 50 55
e 50 56
e 50 57
e 50 59
e 50 60
e 50 68
e 50 72
e 50 74
e 50 75
e 50 78
e 50 83
e 50 84
e 50 88
e 50 90
e 50 91
e 50 92
e 50 94
e 50 100
e 51 52
e 51 58
e 51 65
e 51 67
e 51 68
e 51 74
e 51 75
e 51 78
e 51 79
e 51 83
e 51 90
e 51 92
e 51 93
e 51 96
e 51 98
e 52 56
e 52 57
e 52 59
e 52 60
e 52 64
e 52 65
e 52 66
e 52 69
e 52 70
e 52 71
e 52 74
e 52 76
e 52 77
e 52 78
e 52 79
e 52 83
e 52 93
e 52 94
e 53 54
e 53 55
e 53 61
e 53 63
e 53 64
e 53 65
e 53 68
e 53 73
e 53 74
e 53 77
e 53 81
e 53 84
e 53 86
e 53 94
e 53 95
e 53 98
e 53 99
e 53 100
e 54 56
e 54 58
e 54 60
e 54 64
e 54 65
e 54 69
e 54 70
e 54 73
e 54 74
e 54 83
e 54 84
e 54 85
e 54 87
e 54 88
e 54 92
e 54 93
e 54 94
e 54 99
e 54 100
e 55 63
e 55 64
e 55 66
e 55 69
e 55 78
e 55 84
e 55 88
e 55 89
e 55 94
e 55 99
e 56 57
e 56 58
e 56 63
e 56 68
e 56 74
e 56 75
e 56 79
e 56 82
e 56 84
e 56 86
e 56 87
e 56 88
e 56 90
e 56 91
e 56 96
e 57 66
e 57 67
e 57 68
e 57 69
e 57 70
e 57 71
e 57 79
e 57 81
e 57 83
e 57 95
e 57 97
e 57 98
e 57 100
e 58 60
e 58 61
e 58 65
e 58 84
e 58 86
e 58 88
e 58 91
e 58 93
e 58 94
e 58 95
e 58 96
e 59 60
e 59 67
e 59 69
e 59 81
e 59 82
e 59 85
e 59 86
e 59 87
e 59 91
e 59 93
e 59 98
e 60 61
e 60 69
e 60 71
e 60 74
e 60 83
e 60 84
e 60 85
e 60 87
e 60 88
e 60 90
e 60 95
e 60 98
e 60 100
e 61 65
e 61 66
e 61 67
e 61 71
e 61 72
e 61 74
e 61 77
e 61 83
e 61 85
e 61 87
e 61 90
e 62 70
e 62 71
e 62 72
e 62 81
e 62 82
e 62 83
e 62 85
e 62 93
e 63 67
e 63 72
e 63 75
e 63 81
e 63 85
e 63 88
e 63 92
e 63 96
e 64 67
e 64 71
e 64 73
e 64 74
e 64 81
e 64 84
e 64 91
e 64 95
e 64 97
e 65 66
e 65 70
e 65 75
e 65 85
e 65 86
e 65 95
e 65 97
e 66 67
e 66 71
e 66 76
e 66 80
e 66 81
e 66 82
e 66 85
e 66 86
e 66 92
e 66 98
e 67 69
e 67 74
e 67 76
e 67 78
e 67 83
e 67 85
e 67 88
e 67 89
e 68 69
e 68 70
e 68 71
e 68 77
e 68 81
e 68 92
e 68 95
e 69 71
e 69 72
e 69 74
e 69 75
e 69 82
e 69 83
e 69 85
e 69 86
e 70 71
e 70 76
e 70 84
e 70 89
e 70 91
e 70 96
e 70 98
e 70 99
e 70 100
e 71 76
e 71 84
e 71 88
e 71 93
e 71 98
e 72 73
e 72 75
e 72 88
e 72 90
e 72 92
e 72 99
e 72 100
e 73 76
e 73 81
e 73 83
e 73 87
e 73 89
e 73 90
e 73 92
e 73 93
e 73 99
e 73 100
e 74 76
e 74 77
e 74 80
e 74 81
e 74 84
e 74 88
e 74 92
e 74 94
e 74 99
e 74 100
e 75 82
e 75 83
e 75 84
e 75 85
e 75 89
e 75 99
e 76 82
e 76 88
e 76 89
e 76 91
e 76 92
e 76 95
e 76 96
e 76 100
e 77 86
e 77 94
e 77 96
e 78 80
e 78 84
e 78 94
e 78 100
e 79 81
e 79 91
e 79 95
e 79 96
e 79 99
e 80 81
e 80 85
e 80 86
e 80 91
e 81 84
e 81 85
e 81 94
e 81 97
e 81 98
e 81 99
e 82 85
e 82 88
e 83 85
e 83 89
e 83 96
e 83 99
e 84 86
e 84 88
e 84 92
e 84 94
e 85 89
e 85 91
e 85 94
e 86 87
e 86 88
e 86 95
e 86 99
e 86 100
e 87 92
e 87 93
e 87 96
e 87 99
e 88 90
e 88 93
e 88 96
e 88 100
e 90 92
e 90 98
e 91 93
e 92 96
e 93 96
e 93 100
e 94 97
e 95 96
e 96 99
e 97 100
e 99 100
